1184.85,47.79,57.28
1409.72,40.17,48.14
1342.66,42.18,50.55
1237.37,45.76,54.85
1257.89,45.02,53.95
1190.01,47.59,57.03
1243.46,45.54,54.58
1344.62,42.11,50.47
1225.69,46.2,55.37
1313.22,43.12,51.68
1372.8,41.25,49.44
1240.51,45.65,54.71
1226.07,46.19,55.35
1166.22,48.56,58.19
1453.61,38.96,46.69
1265.04,44.76,53.65
1379.43,41.05,49.2
1400.01,40.45,48.48
1335.54,42.4,50.82
1432.29,39.54,47.38
